p cnf 18 240
1 2 3 0 
-1 -2 0 
-1 -3 0 
-2 -3 0 
4 5 6 0 
-4 -5 0 
-4 -6 0 
-5 -6 0 
7 8 9 0 
-7 -8 0 
-7 -9 0 
-8 -9 0 
10 11 12 0 
-10 -11 0 
-10 -12 0 
-11 -12 0 
13 14 15 0 
-13 -14 0 
-13 -15 0 
-14 -15 0 
16 17 18 0 
-16 -17 0 
-16 -18 0 
-17 -18 0 
-1 -4 -7 0 
-1 -4 -10 0 
-1 -4 -13 0 
-1 -4 -16 0 
-1 -7 -4 0 
-1 -7 -10 0 
-1 -7 -13 0 
-1 -7 -16 0 
-1 -10 -4 0 
-1 -10 -7 0 
-1 -10 -13 0 
-1 -10 -16 0 
-1 -13 -4 0 
-1 -13 -7 0 
-1 -13 -10 0 
-1 -13 -16 0 
-1 -16 -4 0 
-1 -16 -7 0 
-1 -16 -10 0 
-1 -16 -13 0 
-4 -7 -1 0 
-4 -7 -10 0 
-4 -7 -13 0 
-4 -7 -16 0 
-4 -10 -1 0 
-4 -10 -7 0 
-4 -10 -13 0 
-4 -10 -16 0 
-4 -13 -1 0 
-4 -13 -7 0 
-4 -13 -10 0 
-4 -13 -16 0 
-4 -16 -1 0 
-4 -16 -7 0 
-4 -16 -10 0 
-4 -16 -13 0 
-7 -10 -1 0 
-7 -10 -4 0 
-7 -10 -13 0 
-7 -10 -16 0 
-7 -13 -1 0 
-7 -13 -4 0 
-7 -13 -10 0 
-7 -13 -16 0 
-7 -16 -1 0 
-7 -16 -4 0 
-7 -16 -10 0 
-7 -16 -13 0 
-10 -13 -1 0 
-10 -13 -4 0 
-10 -13 -7 0 
-10 -13 -16 0 
-10 -16 -1 0 
-10 -16 -4 0 
-10 -16 -7 0 
-10 -16 -13 0 
-13 -16 -1 0 
-13 -16 -4 0 
-13 -16 -7 0 
-13 -16 -10 0 
4 7 10 13 16 0 
1 7 10 13 16 0 
1 4 10 13 16 0 
1 4 7 13 16 0 
1 4 7 10 16 0 
1 4 7 10 13 0 
-2 -5 -8 0 
-2 -5 -11 0 
-2 -5 -14 0 
-2 -5 -17 0 
-2 -8 -5 0 
-2 -8 -11 0 
-2 -8 -14 0 
-2 -8 -17 0 
-2 -11 -5 0 
-2 -11 -8 0 
-2 -11 -14 0 
-2 -11 -17 0 
-2 -14 -5 0 
-2 -14 -8 0 
-2 -14 -11 0 
-2 -14 -17 0 
-2 -17 -5 0 
-2 -17 -8 0 
-2 -17 -11 0 
-2 -17 -14 0 
-5 -8 -2 0 
-5 -8 -11 0 
-5 -8 -14 0 
-5 -8 -17 0 
-5 -11 -2 0 
-5 -11 -8 0 
-5 -11 -14 0 
-5 -11 -17 0 
-5 -14 -2 0 
-5 -14 -8 0 
-5 -14 -11 0 
-5 -14 -17 0 
-5 -17 -2 0 
-5 -17 -8 0 
-5 -17 -11 0 
-5 -17 -14 0 
-8 -11 -2 0 
-8 -11 -5 0 
-8 -11 -14 0 
-8 -11 -17 0 
-8 -14 -2 0 
-8 -14 -5 0 
-8 -14 -11 0 
-8 -14 -17 0 
-8 -17 -2 0 
-8 -17 -5 0 
-8 -17 -11 0 
-8 -17 -14 0 
-11 -14 -2 0 
-11 -14 -5 0 
-11 -14 -8 0 
-11 -14 -17 0 
-11 -17 -2 0 
-11 -17 -5 0 
-11 -17 -8 0 
-11 -17 -14 0 
-14 -17 -2 0 
-14 -17 -5 0 
-14 -17 -8 0 
-14 -17 -11 0 
5 8 11 14 17 0 
2 8 11 14 17 0 
2 5 11 14 17 0 
2 5 8 14 17 0 
2 5 8 11 17 0 
2 5 8 11 14 0 
-3 -6 -9 0 
-3 -6 -12 0 
-3 -6 -15 0 
-3 -6 -18 0 
-3 -9 -6 0 
-3 -9 -12 0 
-3 -9 -15 0 
-3 -9 -18 0 
-3 -12 -6 0 
-3 -12 -9 0 
-3 -12 -15 0 
-3 -12 -18 0 
-3 -15 -6 0 
-3 -15 -9 0 
-3 -15 -12 0 
-3 -15 -18 0 
-3 -18 -6 0 
-3 -18 -9 0 
-3 -18 -12 0 
-3 -18 -15 0 
-6 -9 -3 0 
-6 -9 -12 0 
-6 -9 -15 0 
-6 -9 -18 0 
-6 -12 -3 0 
-6 -12 -9 0 
-6 -12 -15 0 
-6 -12 -18 0 
-6 -15 -3 0 
-6 -15 -9 0 
-6 -15 -12 0 
-6 -15 -18 0 
-6 -18 -3 0 
-6 -18 -9 0 
-6 -18 -12 0 
-6 -18 -15 0 
-9 -12 -3 0 
-9 -12 -6 0 
-9 -12 -15 0 
-9 -12 -18 0 
-9 -15 -3 0 
-9 -15 -6 0 
-9 -15 -12 0 
-9 -15 -18 0 
-9 -18 -3 0 
-9 -18 -6 0 
-9 -18 -12 0 
-9 -18 -15 0 
-12 -15 -3 0 
-12 -15 -6 0 
-12 -15 -9 0 
-12 -15 -18 0 
-12 -18 -3 0 
-12 -18 -6 0 
-12 -18 -9 0 
-12 -18 -15 0 
-15 -18 -3 0 
-15 -18 -6 0 
-15 -18 -9 0 
-15 -18 -12 0 
6 9 12 15 18 0 
3 9 12 15 18 0 
3 6 12 15 18 0 
3 6 9 15 18 0 
3 6 9 12 18 0 
3 6 9 12 15 0 
-1 4 0 
-2 8 0 
-3 12 0 
-4 1 7 0 
-5 11 0 
-6 15 0 
-7 4 10 0 
-8 2 14 0 
-9 18 0 
-10 7 13 0 
-11 5 17 0 
-12 3 0 
-13 10 16 0 
-14 8 0 
-15 6 0 
-16 13 0 
-17 11 0 
-18 9 0 